certificates/rado_a15_c33_N40.cnf
c Rad2 upper bound instance: x1 + 15*x2 - x3 = 33, interval [1,40]
p cnf 40 200
1 3 13 0
-1 -3 -13 0
1 4 28 0
-1 -4 -28 0
2 3 14 0
-2 -3 -14 0
2 4 29 0
-2 -4 -29 0
3 15 0
-3 -15 0
3 4 30 0
-3 -4 -30 0
1 2 4 0
-1 -2 -4 0
3 4 16 0
-3 -4 -16 0
4 31 0
-4 -31 0
2 5 0
-2 -5 0
3 5 17 0
-3 -5 -17 0
4 5 32 0
-4 -5 -32 0
2 3 6 0
-2 -3 -6 0
3 6 18 0
-3 -6 -18 0
4 6 33 0
-4 -6 -33 0
2 4 7 0
-2 -4 -7 0
3 7 19 0
-3 -7 -19 0
4 7 34 0
-4 -7 -34 0
2 5 8 0
-2 -5 -8 0
3 8 20 0
-3 -8 -20 0
4 8 35 0
-4 -8 -35 0
2 6 9 0
-2 -6 -9 0
3 9 21 0
-3 -9 -21 0
4 9 36 0
-4 -9 -36 0
2 7 10 0
-2 -7 -10 0
3 10 22 0
-3 -10 -22 0
4 10 37 0
-4 -10 -37 0
2 8 11 0
-2 -8 -11 0
3 11 23 0
-3 -11 -23 0
4 11 38 0
-4 -11 -38 0
2 9 12 0
-2 -9 -12 0
3 12 24 0
-3 -12 -24 0
4 12 39 0
-4 -12 -39 0
2 10 13 0
-2 -10 -13 0
3 13 25 0
-3 -13 -25 0
4 13 40 0
-4 -13 -40 0
2 11 14 0
-2 -11 -14 0
3 14 26 0
-3 -14 -26 0
2 12 15 0
-2 -12 -15 0
3 15 27 0
-3 -15 -27 0
2 13 16 0
-2 -13 -16 0
3 16 28 0
-3 -16 -28 0
2 14 17 0
-2 -14 -17 0
3 17 29 0
-3 -17 -29 0
2 15 18 0
-2 -15 -18 0
3 18 30 0
-3 -18 -30 0
1 19 0
-1 -19 0
2 16 19 0
-2 -16 -19 0
3 19 31 0
-3 -19 -31 0
1 2 20 0
-1 -2 -20 0
2 17 20 0
-2 -17 -20 0
3 20 32 0
-3 -20 -32 0
1 3 21 0
-1 -3 -21 0
2 18 21 0
-2 -18 -21 0
3 21 33 0
-3 -21 -33 0
1 4 22 0
-1 -4 -22 0
2 19 22 0
-2 -19 -22 0
3 22 34 0
-3 -22 -34 0
1 5 23 0
-1 -5 -23 0
2 20 23 0
-2 -20 -23 0
3 23 35 0
-3 -23 -35 0
1 6 24 0
-1 -6 -24 0
2 21 24 0
-2 -21 -24 0
3 24 36 0
-3 -24 -36 0
1 7 25 0
-1 -7 -25 0
2 22 25 0
-2 -22 -25 0
3 25 37 0
-3 -25 -37 0
1 8 26 0
-1 -8 -26 0
2 23 26 0
-2 -23 -26 0
3 26 38 0
-3 -26 -38 0
1 9 27 0
-1 -9 -27 0
2 24 27 0
-2 -24 -27 0
3 27 39 0
-3 -27 -39 0
1 10 28 0
-1 -10 -28 0
2 25 28 0
-2 -25 -28 0
3 28 40 0
-3 -28 -40 0
1 11 29 0
-1 -11 -29 0
2 26 29 0
-2 -26 -29 0
1 12 30 0
-1 -12 -30 0
2 27 30 0
-2 -27 -30 0
1 13 31 0
-1 -13 -31 0
2 28 31 0
-2 -28 -31 0
1 14 32 0
-1 -14 -32 0
2 29 32 0
-2 -29 -32 0
1 15 33 0
-1 -15 -33 0
2 30 33 0
-2 -30 -33 0
1 16 34 0
-1 -16 -34 0
2 31 34 0
-2 -31 -34 0
1 17 35 0
-1 -17 -35 0
2 32 35 0
-2 -32 -35 0
1 18 36 0
-1 -18 -36 0
2 33 36 0
-2 -33 -36 0
1 19 37 0
-1 -19 -37 0
2 34 37 0
-2 -34 -37 0
1 20 38 0
-1 -20 -38 0
2 35 38 0
-2 -35 -38 0
1 21 39 0
-1 -21 -39 0
2 36 39 0
-2 -36 -39 0
1 22 40 0
-1 -22 -40 0
2 37 40 0
-2 -37 -40 0
