certificates/rado_a15_c33_N40.drat
-32 2 0
14 2 0
-17 -35 2 -40 0
1 2 -40 0
2 -40 0
d 1 2 -40 0
4 -40 0
-40 0
1 -2 0
-1 -2 0
d -4 -1 -2 0
-2 0
5 0
37 0
-32 0
14 0
35 0
29 0
-1 0
19 0
22 0
4 0
20 0
-31 0
-10 0
-8 0
34 0
13 0
28 0
7 0
11 0
26 0
-3 0
0
